NAME          
ROWS
 N  OBJ
 L  c1
 L  c2
 L  c3
 L  c4
COLUMNS
    MARKER    'MARKER'                 'INTORG'
    x[1]      c1        123
    x[1]      c2        900
    x[1]      c3        224
    x[1]      c4        833
    x[1]      OBJ       -160
    x[2]      c1        36
    x[2]      c2        782
    x[2]      c3        97
    x[2]      c4        681
    x[2]      OBJ       -589
    x[3]      c1        212
    x[3]      c2        909
    x[3]      c3        306
    x[3]      c4        404
    x[3]      OBJ       -526
    x[4]      c1        209
    x[4]      c2        750
    x[4]      c3        736
    x[4]      c4        394
    x[4]      OBJ       -652
    x[5]      c1        825
    x[5]      c2        22
    x[5]      c3        889
    x[5]      c4        759
    x[5]      OBJ       -522
    x[6]      c1        783
    x[6]      c2        927
    x[6]      c3        414
    x[6]      c4        217
    x[6]      OBJ       -656
    x[7]      c1        911
    x[7]      c2        962
    x[7]      c3        748
    x[7]      c4        434
    x[7]      OBJ       -711
    x[8]      c1        901
    x[8]      c2        174
    x[8]      c3        500
    x[8]      c4        217
    x[8]      OBJ       -10
    x[9]      c1        860
    x[9]      c2        197
    x[9]      c3        955
    x[9]      c4        552
    x[9]      OBJ       -68
    x[10]     c1        816
    x[10]     c2        639
    x[10]     c3        413
    x[10]     c4        415
    x[10]     OBJ       -798
    x[11]     c1        666
    x[11]     c2        800
    x[11]     c3        684
    x[11]     c4        391
    x[11]     OBJ       -134
    x[12]     c1        414
    x[12]     c2        126
    x[12]     c3        63
    x[12]     c4        787
    x[12]     OBJ       -509
    x[13]     c1        321
    x[13]     c2        299
    x[13]     c3        487
    x[13]     c4        846
    x[13]     OBJ       -351
    x[14]     c1        172
    x[14]     c2        716
    x[14]     c3        215
    x[14]     c4        495
    x[14]     OBJ       -94
    x[15]     c1        24
    x[15]     c2        656
    x[15]     c3        171
    x[15]     c4        179
    x[15]     OBJ       -124
    x[16]     c1        374
    x[16]     c2        725
    x[16]     c3        545
    x[16]     c4        28
    x[16]     OBJ       -300
    x[17]     c1        311
    x[17]     c2        925
    x[17]     c3        252
    x[17]     c4        328
    x[17]     OBJ       -539
    x[18]     c1        207
    x[18]     c2        985
    x[18]     c3        743
    x[18]     c4        713
    x[18]     OBJ       -541
    x[19]     c1        928
    x[19]     c2        902
    x[19]     c3        592
    x[19]     c4        560
    x[19]     OBJ       -780
    x[20]     c1        908
    x[20]     c2        770
    x[20]     c3        956
    x[20]     c4        807
    x[20]     OBJ       -949
    x[21]     c1        253
    x[21]     c2        148
    x[21]     c3        345
    x[21]     c4        986
    x[21]     OBJ       -23
    x[22]     c1        540
    x[22]     c2        42
    x[22]     c3        735
    x[22]     c4        27
    x[22]     OBJ       -260
    x[23]     c1        53
    x[23]     c2        180
    x[23]     c3        50
    x[23]     c4        352
    x[23]     OBJ       -448
    x[24]     c1        40
    x[24]     c2        793
    x[24]     c3        644
    x[24]     c4        196
    x[24]     OBJ       -15
    x[25]     c1        665
    x[25]     c2        833
    x[25]     c3        981
    x[25]     c4        421
    x[25]     OBJ       -615
    x[26]     c1        581
    x[26]     c2        807
    x[26]     c3        556
    x[26]     c4        384
    x[26]     OBJ       -237
    x[27]     c1        673
    x[27]     c2        42
    x[27]     c3        852
    x[27]     c4        483
    x[27]     OBJ       -146
    x[28]     c1        541
    x[28]     c2        189
    x[28]     c3        854
    x[28]     c4        276
    x[28]     OBJ       -665
    x[29]     c1        180
    x[29]     c2        367
    x[29]     c3        155
    x[29]     c4        893
    x[29]     OBJ       -17
    x[30]     c1        49
    x[30]     c2        688
    x[30]     c3        562
    x[30]     c4        345
    x[30]     OBJ       -909
    x[31]     c1        542
    x[31]     c2        278
    x[31]     c3        449
    x[31]     c4        594
    x[31]     OBJ       -844
    x[32]     c1        49
    x[32]     c2        216
    x[32]     c3        739
    x[32]     c4        722
    x[32]     OBJ       -506
    x[33]     c1        375
    x[33]     c2        239
    x[33]     c3        78
    x[33]     c4        810
    x[33]     OBJ       -151
    x[34]     c1        347
    x[34]     c2        82
    x[34]     c3        836
    x[34]     c4        635
    x[34]     OBJ       -950
    x[35]     c1        523
    x[35]     c2        519
    x[35]     c3        339
    x[35]     c4        506
    x[35]     OBJ       -12
    x[36]     c1        850
    x[36]     c2        288
    x[36]     c3        539
    x[36]     c4        263
    x[36]     OBJ       -188
    x[37]     c1        721
    x[37]     c2        939
    x[37]     c3        38
    x[37]     c4        278
    x[37]     OBJ       -664
    x[38]     c1        522
    x[38]     c2        568
    x[38]     c3        551
    x[38]     c4        7
    x[38]     OBJ       -604
    x[39]     c1        886
    x[39]     c2        26
    x[39]     c3        256
    x[39]     c4        322
    x[39]     OBJ       -652
    x[40]     c1        38
    x[40]     c2        558
    x[40]     c3        288
    x[40]     c4        337
    x[40]     OBJ       -494
    x[41]     c1        300
    x[41]     c2        462
    x[41]     c3        972
    x[41]     c4        424
    x[41]     OBJ       -318
    x[42]     c1        438
    x[42]     c2        711
    x[42]     c3        597
    x[42]     c4        840
    x[42]     OBJ       -363
    x[43]     c1        347
    x[43]     c2        264
    x[43]     c3        380
    x[43]     c4        379
    x[43]     OBJ       -194
    x[44]     c1        123
    x[44]     c2        236
    x[44]     c3        607
    x[44]     c4        979
    x[44]     OBJ       -9
    x[45]     c1        501
    x[45]     c2        449
    x[45]     c3        825
    x[45]     c4        650
    x[45]     OBJ       -705
RHS
    rhs       c1        10069
    rhs       c2        11545
    rhs       c3        11609
    rhs       c4        11074
RANGES
BOUNDS
 BV bounds    x[1]
 BV bounds    x[2]
 BV bounds    x[3]
 BV bounds    x[4]
 BV bounds    x[5]
 BV bounds    x[6]
 BV bounds    x[7]
 BV bounds    x[8]
 BV bounds    x[9]
 BV bounds    x[10]
 BV bounds    x[11]
 BV bounds    x[12]
 BV bounds    x[13]
 BV bounds    x[14]
 BV bounds    x[15]
 BV bounds    x[16]
 BV bounds    x[17]
 BV bounds    x[18]
 BV bounds    x[19]
 BV bounds    x[20]
 BV bounds    x[21]
 BV bounds    x[22]
 BV bounds    x[23]
 BV bounds    x[24]
 BV bounds    x[25]
 BV bounds    x[26]
 BV bounds    x[27]
 BV bounds    x[28]
 BV bounds    x[29]
 BV bounds    x[30]
 BV bounds    x[31]
 BV bounds    x[32]
 BV bounds    x[33]
 BV bounds    x[34]
 BV bounds    x[35]
 BV bounds    x[36]
 BV bounds    x[37]
 BV bounds    x[38]
 BV bounds    x[39]
 BV bounds    x[40]
 BV bounds    x[41]
 BV bounds    x[42]
 BV bounds    x[43]
 BV bounds    x[44]
 BV bounds    x[45]
ENDATA
